59 84 
23 40 
45 52 
93 63 
9 5 
10 85 
47 79 
76 65 
36 69 
9 16 
70 98 
76 22 
24 22 
74 94 
60 95 
49 19 
32 72 
11 77 
76 5 
40 85 
62 2 
71 62 
81 99 
79 70 
20 88 
38 90 
38 15 
64 62 
89 91 
8 1 
38 57 
73 70 
82 84 
47 58 
41 39 
96 56 
42 19 
18 75 
18 97 
45 38 
38 84 
80 76 
51 44 
39 40 
87 47 
42 26 
57 67 
96 91 
51 96 
49 93 
